(set-logic QF_NRA)
(set-info :source |Benchmarks generated from hycomp (https://es-static.fbk.eu/tools/hycomp/). BMC instances of non-linear hybrid automata taken from: Alessandro Cimatti, Sergio Mover, Stefano Tonetta, A quantifier-free SMT encoding of non-linear hybrid automata, FMCAD 2012 and Alessandro Cimatti, Sergio Mover, Stefano Tonetta, Quantier-free encoding of invariants for Hybrid Systems, Formal Methods in System Design. This instance solves a BMC problem of depth 1 and uses the quantifier free encoding encoding. Contacts: Sergio Mover (mover@fbk.eu), Stefano Tonetta (tonettas@fbk.eu), Alessandro Cimatti (cimatti@fbk.eu).|)
(set-info :smt-lib-version 2.0)
(set-info :category "industrial")
(set-info :status unsat)
;; MathSAT API call trace
;; generated on Mon Mar 19 10:50:37 2012
(declare-fun b.event_is_timed__AT1 () Bool)
(declare-fun speed_loss__AT0 () Real)
(declare-fun b.counter.1__AT1 () Bool)
(declare-fun b.counter.2__AT1 () Bool)
(declare-fun b.counter.2__AT0 () Bool)
(declare-fun b.time__AT0 () Real)
(declare-fun b.speed_y__AT0 () Real)
(declare-fun b.EVENT.1__AT0 () Bool)
(declare-fun b.time__AT1 () Real)
(declare-fun b.y__AT1 () Real)
(declare-fun b.counter.0__AT1 () Bool)
(declare-fun b.delta__AT0 () Real)
(declare-fun b.counter.3__AT1 () Bool)
(declare-fun b.y__AT0 () Real)
(declare-fun b.event_is_timed__AT0 () Bool)
(declare-fun b.counter.0__AT0 () Bool)
(declare-fun b.counter.1__AT0 () Bool)
(declare-fun b.counter.3__AT0 () Bool)
(declare-fun b.delta__AT1 () Real)
(declare-fun b.EVENT.0__AT1 () Bool)
(declare-fun b.EVENT.1__AT1 () Bool)
(declare-fun b.EVENT.0__AT0 () Bool)
(declare-fun b.speed_y__AT1 () Real)
(assert (let ((.def_244 (* (- 49.0) b.delta__AT1)))
(let ((.def_245 (* 5.0 b.speed_y__AT1)))
(let ((.def_247 (+ .def_245 .def_244)))
(let ((.def_251 (<= .def_247 0.0 )))
(let ((.def_250 (<= b.speed_y__AT1 0.0 )))
(let ((.def_252 (and .def_250 .def_251)))
(let ((.def_248 (<= 0.0 .def_247)))
(let ((.def_243 (<= 0.0 b.speed_y__AT1)))
(let ((.def_249 (and .def_243 .def_248)))
(let ((.def_253 (or .def_249 .def_252)))
(let ((.def_235 (* b.speed_y__AT1 b.delta__AT1)))
(let ((.def_236 (* 10.0 .def_235)))
(let ((.def_233 (* b.delta__AT1 b.delta__AT1)))
(let ((.def_234 (* (- 49.0) .def_233)))
(let ((.def_237 (+ .def_234 .def_236)))
(let ((.def_238 (* 10.0 b.y__AT1)))
(let ((.def_240 (+ .def_238 .def_237)))
(let ((.def_241 (<= 0.0 .def_240)))
(let ((.def_223 (<= 0.0 b.y__AT1)))
(let ((.def_242 (and .def_223 .def_241)))
(let ((.def_254 (and .def_242 .def_253)))
(let ((.def_61 (<= speed_loss__AT0 (/ 1 2))))
(let ((.def_58 (<= (/ 1 10) speed_loss__AT0)))
(let ((.def_62 (and .def_58 .def_61)))
(let ((.def_255 (and .def_62 .def_254)))
(let ((.def_32 (not b.counter.0__AT0)))
(let ((.def_30 (not b.counter.1__AT0)))
(let ((.def_33 (and .def_30 .def_32)))
(let ((.def_228 (or .def_33 b.counter.3__AT0)))
(let ((.def_38 (not b.counter.3__AT0)))
(let ((.def_35 (not b.counter.2__AT0)))
(let ((.def_36 (and .def_33 .def_35)))
(let ((.def_227 (or .def_36 .def_38)))
(let ((.def_229 (and .def_227 .def_228)))
(let ((.def_224 (and .def_62 .def_223)))
(let ((.def_220 (not b.EVENT.0__AT1)))
(let ((.def_218 (not b.EVENT.1__AT1)))
(let ((.def_221 (or .def_218 .def_220)))
(let ((.def_6 (not b.counter.0__AT1)))
(let ((.def_4 (not b.counter.1__AT1)))
(let ((.def_211 (or .def_4 .def_6)))
(let ((.def_215 (or b.counter.3__AT1 .def_211)))
(let ((.def_212 (or b.counter.2__AT1 .def_211)))
(let ((.def_9 (not b.counter.2__AT1)))
(let ((.def_210 (or .def_6 .def_9)))
(let ((.def_213 (and .def_210 .def_212)))
(let ((.def_12 (not b.counter.3__AT1)))
(let ((.def_214 (or .def_12 .def_213)))
(let ((.def_216 (and .def_214 .def_215)))
(let ((.def_222 (and .def_216 .def_221)))
(let ((.def_225 (and .def_222 .def_224)))
(let ((.def_205 (<= 0.0 b.delta__AT0)))
(let ((.def_51 (not b.EVENT.0__AT0)))
(let ((.def_49 (not b.EVENT.1__AT0)))
(let ((.def_151 (and .def_49 .def_51)))
(let ((.def_155 (not .def_151)))
(let ((.def_206 (or .def_155 .def_205)))
(let ((.def_207 (or b.EVENT.1__AT0 .def_206)))
(let ((.def_143 (= b.counter.0__AT1 b.counter.0__AT0)))
(let ((.def_141 (= b.counter.1__AT1 b.counter.1__AT0)))
(let ((.def_139 (= b.counter.2__AT1 b.counter.2__AT0)))
(let ((.def_138 (= b.counter.3__AT1 b.counter.3__AT0)))
(let ((.def_140 (and .def_138 .def_139)))
(let ((.def_142 (and .def_140 .def_141)))
(let ((.def_144 (and .def_142 .def_143)))
(let ((.def_202 (or .def_144 .def_155)))
(let ((.def_203 (or b.EVENT.1__AT0 .def_202)))
(let ((.def_191 (* (- 10.0) b.y__AT1)))
(let ((.def_72 (* b.speed_y__AT0 b.delta__AT0)))
(let ((.def_73 (* 10.0 .def_72)))
(let ((.def_194 (+ .def_73 .def_191)))
(let ((.def_68 (* b.delta__AT0 b.delta__AT0)))
(let ((.def_71 (* (- 49.0) .def_68)))
(let ((.def_195 (+ .def_71 .def_194)))
(let ((.def_75 (* 10.0 b.y__AT0)))
(let ((.def_196 (+ .def_75 .def_195)))
(let ((.def_197 (= .def_196 0.0 )))
(let ((.def_186 (* (- 5.0) b.speed_y__AT1)))
(let ((.def_81 (* (- 49.0) b.delta__AT0)))
(let ((.def_187 (+ .def_81 .def_186)))
(let ((.def_83 (* 5.0 b.speed_y__AT0)))
(let ((.def_188 (+ .def_83 .def_187)))
(let ((.def_189 (= .def_188 0.0 )))
(let ((.def_198 (and .def_189 .def_197)))
(let ((.def_199 (or .def_155 .def_198)))
(let ((.def_149 (= b.y__AT0 b.y__AT1)))
(let ((.def_137 (= b.speed_y__AT0 b.speed_y__AT1)))
(let ((.def_182 (and .def_137 .def_149)))
(let ((.def_179 (= b.delta__AT0 0.0 )))
(let ((.def_180 (and .def_151 .def_179)))
(let ((.def_181 (not .def_180)))
(let ((.def_183 (or .def_181 .def_182)))
(let ((.def_184 (or b.EVENT.1__AT0 .def_183)))
(let ((.def_200 (and .def_184 .def_199)))
(let ((.def_161 (= b.time__AT0 b.time__AT1)))
(let ((.def_173 (and .def_149 .def_161)))
(let ((.def_174 (and .def_137 .def_173)))
(let ((.def_175 (and .def_144 .def_174)))
(let ((.def_176 (or .def_49 .def_175)))
(let ((.def_164 (* (- 1.0) b.time__AT1)))
(let ((.def_167 (+ b.delta__AT0 .def_164)))
(let ((.def_168 (+ b.time__AT0 .def_167)))
(let ((.def_169 (= .def_168 0.0 )))
(let ((.def_170 (or .def_155 .def_169)))
(let ((.def_171 (or b.EVENT.1__AT0 .def_170)))
(let ((.def_162 (or .def_151 .def_161)))
(let ((.def_163 (or b.EVENT.1__AT0 .def_162)))
(let ((.def_172 (and .def_163 .def_171)))
(let ((.def_177 (and .def_172 .def_176)))
(let ((.def_157 (= .def_155 b.event_is_timed__AT1)))
(let ((.def_154 (= b.event_is_timed__AT0 .def_151)))
(let ((.def_158 (and .def_154 .def_157)))
(let ((.def_145 (and .def_137 .def_144)))
(let ((.def_80 (<= 0.0 b.speed_y__AT0)))
(let ((.def_96 (not .def_80)))
(let ((.def_95 (= b.y__AT0 0.0 )))
(let ((.def_97 (and .def_95 .def_96)))
(let ((.def_146 (or .def_97 .def_145)))
(let ((.def_114 (or .def_6 b.counter.0__AT0)))
(let ((.def_113 (or b.counter.0__AT1 .def_32)))
(let ((.def_115 (and .def_113 .def_114)))
(let ((.def_116 (and .def_4 .def_115)))
(let ((.def_117 (or b.counter.1__AT0 .def_116)))
(let ((.def_112 (or b.counter.1__AT1 .def_30)))
(let ((.def_118 (and .def_112 .def_117)))
(let ((.def_129 (and .def_9 .def_118)))
(let ((.def_130 (or b.counter.2__AT0 .def_129)))
(let ((.def_124 (and .def_4 .def_32)))
(let ((.def_125 (or b.counter.1__AT0 .def_124)))
(let ((.def_126 (and .def_112 .def_125)))
(let ((.def_127 (and b.counter.2__AT1 .def_126)))
(let ((.def_128 (or .def_35 .def_127)))
(let ((.def_131 (and .def_128 .def_130)))
(let ((.def_132 (and b.counter.3__AT1 .def_131)))
(let ((.def_133 (or b.counter.3__AT0 .def_132)))
(let ((.def_119 (and b.counter.2__AT1 .def_118)))
(let ((.def_120 (or b.counter.2__AT0 .def_119)))
(let ((.def_108 (or b.counter.1__AT1 b.counter.1__AT0)))
(let ((.def_106 (and .def_4 b.counter.0__AT1)))
(let ((.def_107 (or .def_30 .def_106)))
(let ((.def_109 (and .def_107 .def_108)))
(let ((.def_110 (and .def_9 .def_109)))
(let ((.def_111 (or .def_35 .def_110)))
(let ((.def_121 (and .def_111 .def_120)))
(let ((.def_122 (and .def_12 .def_121)))
(let ((.def_123 (or .def_38 .def_122)))
(let ((.def_134 (and .def_123 .def_133)))
(let ((.def_102 (* (- 1.0) b.speed_y__AT0)))
(let ((.def_100 (* (- 1.0) speed_loss__AT0)))
(let ((.def_101 (+ 1.0 .def_100)))
(let ((.def_103 (* .def_101 .def_102)))
(let ((.def_105 (= .def_103 b.speed_y__AT1)))
(let ((.def_135 (and .def_105 .def_134)))
(let ((.def_98 (not .def_97)))
(let ((.def_136 (or .def_98 .def_135)))
(let ((.def_147 (and .def_136 .def_146)))
(let ((.def_150 (and .def_147 .def_149)))
(let ((.def_152 (or .def_150 .def_151)))
(let ((.def_153 (or b.EVENT.1__AT0 .def_152)))
(let ((.def_159 (and .def_153 .def_158)))
(let ((.def_178 (and .def_159 .def_177)))
(let ((.def_201 (and .def_178 .def_200)))
(let ((.def_204 (and .def_201 .def_203)))
(let ((.def_208 (and .def_204 .def_207)))
(let ((.def_209 (and .def_49 .def_208)))
(let ((.def_226 (and .def_209 .def_225)))
(let ((.def_230 (and .def_226 .def_229)))
(let ((.def_85 (+ .def_83 .def_81)))
(let ((.def_89 (<= .def_85 0.0 )))
(let ((.def_88 (<= b.speed_y__AT0 0.0 )))
(let ((.def_90 (and .def_88 .def_89)))
(let ((.def_86 (<= 0.0 .def_85)))
(let ((.def_87 (and .def_80 .def_86)))
(let ((.def_91 (or .def_87 .def_90)))
(let ((.def_74 (+ .def_71 .def_73)))
(let ((.def_77 (+ .def_75 .def_74)))
(let ((.def_78 (<= 0.0 .def_77)))
(let ((.def_54 (<= 0.0 b.y__AT0)))
(let ((.def_79 (and .def_54 .def_78)))
(let ((.def_92 (and .def_79 .def_91)))
(let ((.def_93 (and .def_62 .def_92)))
(let ((.def_63 (and .def_54 .def_62)))
(let ((.def_52 (or .def_49 .def_51)))
(let ((.def_42 (or .def_30 .def_32)))
(let ((.def_46 (or b.counter.3__AT0 .def_42)))
(let ((.def_43 (or b.counter.2__AT0 .def_42)))
(let ((.def_41 (or .def_32 .def_35)))
(let ((.def_44 (and .def_41 .def_43)))
(let ((.def_45 (or .def_38 .def_44)))
(let ((.def_47 (and .def_45 .def_46)))
(let ((.def_53 (and .def_47 .def_52)))
(let ((.def_64 (and .def_53 .def_63)))
(let ((.def_39 (and .def_36 .def_38)))
(let ((.def_27 (= b.speed_y__AT0 0.0 )))
(let ((.def_24 (= b.y__AT0 10.0 )))
(let ((.def_19 (= b.time__AT0 0.0 )))
(let ((.def_21 (and .def_19 b.event_is_timed__AT0)))
(let ((.def_25 (and .def_21 .def_24)))
(let ((.def_28 (and .def_25 .def_27)))
(let ((.def_40 (and .def_28 .def_39)))
(let ((.def_65 (and .def_40 .def_64)))
(let ((.def_7 (and .def_4 .def_6)))
(let ((.def_14 (or .def_7 b.counter.3__AT1)))
(let ((.def_10 (and .def_7 .def_9)))
(let ((.def_13 (or .def_10 .def_12)))
(let ((.def_15 (and .def_13 .def_14)))
(let ((.def_16 (not .def_15)))
(let ((.def_66 (and .def_16 .def_65)))
(let ((.def_94 (and .def_66 .def_93)))
(let ((.def_231 (and .def_94 .def_230)))
(let ((.def_256 (and .def_231 .def_255)))
.def_256))))))))))))))))))))))))))))))))))))))))))))))))))))))))))))))))))))))))))))))))))))))))))))))))))))))))))))))))))))))))))))))))))))))))))))))))))))))))))))))))))))))))))))))))))))))))))))))))))))))))))))))))))))
(check-sat)
(exit)
